; benchmark generated from python API
(set-info :status unknown)
(declare-fun x_month () Int)
(declare-fun x_year () Int)
(declare-fun x_day () Int)
(declare-fun y_month () Int)
(declare-fun y_year () Int)
(declare-fun y_day () Int)
(assert
 (let (($x547 (= x_month 6)))
 (let ((?x464 (ite (or (= x_month 4) $x547 (= x_month 9) (= x_month 11)) 30 31)))
 (let (($x759 (= (mod x_year 400) 0)))
 (let (($x867 (= (mod x_year 4) 0)))
 (let ((?x650 (ite (or (and $x867 (and (distinct (mod x_year 100) 0) true)) $x759) 29 28)))
 (let (($x441 (= x_month 2)))
 (let (($x502 (<= x_day (ite $x441 ?x650 ?x464))))
 (let (($x561 (>= x_day 1)))
 (let (($x704 (<= x_month 2)))
 (let (($x732 (>= x_month 1)))
 (let (($x906 (= x_year 2100)))
 (let (($x473 (<= x_month 12)))
 (let (($x949 (<= x_year 2099)))
 (let (($x593 (>= x_year 1901)))
 (or (and (= x_year 1900) (>= x_month 3) $x473 $x561 $x502) (and $x593 $x949 $x732 $x473 $x561 $x502) (and $x906 $x732 $x704 $x561 $x502)))))))))))))))))
(assert
 (let (($x632 (= y_month 6)))
 (let ((?x1088 (ite (or (= y_month 4) $x632 (= y_month 9) (= y_month 11)) 30 31)))
 (let (($x999 (= (mod y_year 400) 0)))
 (let (($x721 (= (mod y_year 4) 0)))
 (let ((?x567 (ite (or (and $x721 (and (distinct (mod y_year 100) 0) true)) $x999) 29 28)))
 (let (($x1122 (= y_month 2)))
 (let (($x608 (<= y_day (ite $x1122 ?x567 ?x1088))))
 (let (($x597 (>= y_day 1)))
 (let (($x724 (<= y_month 2)))
 (let (($x533 (>= y_month 1)))
 (let (($x1090 (= y_year 2100)))
 (let (($x1001 (<= y_month 12)))
 (let (($x416 (<= y_year 2099)))
 (let (($x661 (>= y_year 1901)))
 (or (and (= y_year 1900) (>= y_month 3) $x1001 $x597 $x608) (and $x661 $x416 $x533 $x1001 $x597 $x608) (and $x1090 $x533 $x724 $x597 $x608)))))))))))))))))
(assert
 (let (($x467 (= x_year 2023)))
 (let (($x921 (and $x467 (or (> x_month 6) (and (= x_month 6) (>= x_day 1))))))
 (or (> x_year 2023) $x921))))
(assert
 (let ((?x458 (+ (mod (- (+ x_month (+ (* 0 12) 1)) 1) 12) 1)))
 (let ((?x1046 (ite (or (= ?x458 4) (= ?x458 6) (= ?x458 9) (= ?x458 11)) 30 31)))
 (let ((?x448 (+ 0 (div (- (+ x_month (+ (* 0 12) 1)) 1) 12))))
 (let ((?x690 (+ x_year ?x448)))
 (let (($x1023 (or (and (= (mod ?x690 4) 0) (and (distinct (mod ?x690 100) 0) true)) (= (mod ?x690 400) 0))))
 (let ((?x986 (ite (= ?x458 2) (ite $x1023 29 28) ?x1046)))
 (let ((?x493 (ite (< x_day 1) 1 (ite (> x_day ?x986) ?x986 x_day))))
 (let ((?x454 (ite (< ?x493 1) 1 (ite (> ?x493 ?x986) ?x986 ?x493))))
 (let ((?x616 (ite (= 2 ?x458) (ite $x1023 31 31) (ite (= 1 ?x458) (ite $x1023 0 0) 0))))
 (let ((?x1134 (ite (= 4 ?x458) (ite $x1023 91 90) (ite (= 3 ?x458) (ite $x1023 60 59) ?x616))))
 (let ((?x1139 (ite (= 6 ?x458) (ite $x1023 152 151) (ite (= 5 ?x458) (ite $x1023 121 120) ?x1134))))
 (let ((?x956 (ite (= 8 ?x458) (ite $x1023 213 212) (ite (= 7 ?x458) (ite $x1023 182 181) ?x1139))))
 (let ((?x2045 (ite (= 10 ?x458) (ite $x1023 274 273) (ite (= 9 ?x458) (ite $x1023 244 243) ?x956))))
 (let ((?x3041 (ite (= 12 ?x458) (ite $x1023 335 334) (ite (= 11 ?x458) (ite $x1023 305 304) ?x2045))))
 (let ((?x495 (- (+ (* 365 (- ?x690 1)) (div (- ?x690 1) 4)) (div (- ?x690 1) 100))))
 (let ((?x946 (- (+ (+ (+ ?x495 (div (- ?x690 1) 400)) ?x3041) (- ?x454 1)) 730179)))
 (let ((?x427 (+ (+ ?x946 0) 730179)))
 (let ((?x895 (mod ?x427 146097)))
 (let ((?x429 (div ?x895 36524)))
 (let ((?x1034 (ite (<= 4 ?x429) 3 ?x429)))
 (let ((?x873 (- ?x895 (* ?x1034 36524))))
 (let ((?x595 (mod ?x873 1461)))
 (let ((?x1028 (div ?x595 365)))
 (let ((?x695 (ite (<= 4 ?x1028) 3 ?x1028)))
 (let ((?x470 (+ (+ (* (div ?x427 146097) 400) (* ?x1034 100)) (* (div ?x873 1461) 4))))
 (let ((?x893 (+ (+ ?x470 ?x695) 1)))
 (let (($x435 (or (and (= (mod ?x893 4) 0) (and (distinct (mod ?x893 100) 0) true)) (= (mod ?x893 400) 0))))
 (let ((?x3386 (- ?x595 (* ?x695 365))))
 (let ((?x1054 (ite $x435 31 31)))
 (let (($x3756 (>= ?x3386 ?x1054)))
 (let ((?x966 (ite $x3756 (+ (- ?x3386 ?x1054) 1) (+ (- ?x3386 (ite $x435 0 0)) 1))))
 (let ((?x818 (ite $x435 60 59)))
 (let (($x836 (>= ?x3386 ?x818)))
 (let ((?x767 (ite $x435 91 90)))
 (let (($x963 (>= ?x3386 ?x767)))
 (let ((?x1135 (ite $x963 (+ (- ?x3386 ?x767) 1) (ite $x836 (+ (- ?x3386 ?x818) 1) ?x966))))
 (let ((?x768 (ite $x435 121 120)))
 (let (($x780 (>= ?x3386 ?x768)))
 (let ((?x1095 (ite $x435 152 151)))
 (let (($x884 (>= ?x3386 ?x1095)))
 (let ((?x403 (ite $x884 (+ (- ?x3386 ?x1095) 1) (ite $x780 (+ (- ?x3386 ?x768) 1) ?x1135))))
 (let ((?x883 (ite $x435 182 181)))
 (let (($x800 (>= ?x3386 ?x883)))
 (let ((?x1032 (ite $x435 213 212)))
 (let (($x1699 (>= ?x3386 ?x1032)))
 (let ((?x453 (ite $x1699 (+ (- ?x3386 ?x1032) 1) (ite $x800 (+ (- ?x3386 ?x883) 1) ?x403))))
 (let ((?x1131 (ite $x435 244 243)))
 (let (($x3258 (>= ?x3386 ?x1131)))
 (let ((?x2915 (ite $x435 274 273)))
 (let (($x1142 (>= ?x3386 ?x2915)))
 (let ((?x916 (ite $x1142 (+ (- ?x3386 ?x2915) 1) (ite $x3258 (+ (- ?x3386 ?x1131) 1) ?x453))))
 (let ((?x551 (ite $x435 305 304)))
 (let (($x1071 (>= ?x3386 ?x551)))
 (let ((?x1727 (ite $x435 335 334)))
 (let (($x602 (>= ?x3386 ?x1727)))
 (let ((?x521 (ite $x602 (+ (- ?x3386 ?x1727) 1) (ite $x1071 (+ (- ?x3386 ?x551) 1) ?x916))))
 (let (($x822 (= 0 0)))
 (let ((?x944 (ite $x822 ?x454 ?x521)))
 (let ((?x861 (ite $x780 5 (ite $x963 4 (ite $x836 3 (ite $x3756 2 1))))))
 (let ((?x3024 (ite $x3258 9 (ite $x1699 8 (ite $x800 7 (ite $x884 6 ?x861))))))
 (let ((?x483 (+ (ite $x822 ?x458 (ite $x602 12 (ite $x1071 11 (ite $x1142 10 ?x3024)))) (+ (* 0 12) 0))))
 (let ((?x997 (- ?x483 1)))
 (let ((?x876 (+ (mod ?x997 12) 1)))
 (let ((?x837 (ite (or (= ?x876 4) (= ?x876 6) (= ?x876 9) (= ?x876 11)) 30 31)))
 (let (($x891 (= (mod (+ (ite $x822 ?x690 ?x893) (+ 0 (div ?x997 12))) 400) 0)))
 (let (($x530 (and (distinct (mod (+ (ite $x822 ?x690 ?x893) (+ 0 (div ?x997 12))) 100) 0) true)))
 (let (($x720 (= (mod (+ (ite $x822 ?x690 ?x893) (+ 0 (div ?x997 12))) 4) 0)))
 (let (($x964 (or (and $x720 $x530) $x891)))
 (let ((?x497 (ite (= ?x876 2) (ite $x964 29 28) ?x837)))
 (let ((?x1666 (ite (< ?x944 1) 1 (ite (> ?x944 ?x497) ?x497 ?x944))))
 (let ((?x849 (ite (< ?x1666 1) 1 (ite (> ?x1666 ?x497) ?x497 ?x1666))))
 (let ((?x839 (ite (= 2 ?x876) (ite $x964 31 31) (ite (= 1 ?x876) (ite $x964 0 0) 0))))
 (let ((?x3531 (ite (= 4 ?x876) (ite $x964 91 90) (ite (= 3 ?x876) (ite $x964 60 59) ?x839))))
 (let ((?x3469 (ite (= 6 ?x876) (ite $x964 152 151) (ite (= 5 ?x876) (ite $x964 121 120) ?x3531))))
 (let ((?x544 (ite (= 8 ?x876) (ite $x964 213 212) (ite (= 7 ?x876) (ite $x964 182 181) ?x3469))))
 (let ((?x1062 (ite (= 10 ?x876) (ite $x964 274 273) (ite (= 9 ?x876) (ite $x964 244 243) ?x544))))
 (let ((?x562 (ite (= 12 ?x876) (ite $x964 335 334) (ite (= 11 ?x876) (ite $x964 305 304) ?x1062))))
 (let ((?x474 (+ (ite $x822 ?x690 ?x893) (+ 0 (div ?x997 12)))))
 (let ((?x890 (- ?x474 1)))
 (let ((?x532 (+ (- (+ (* 365 ?x890) (div ?x890 4)) (div ?x890 100)) (div ?x890 400))))
 (let ((?x983 (+ (+ (- (+ (+ ?x532 ?x562) (- ?x849 1)) 730179) 15) 730179)))
 (let ((?x540 (mod ?x983 146097)))
 (let ((?x1083 (div ?x540 36524)))
 (let ((?x806 (ite (<= 4 ?x1083) 3 ?x1083)))
 (let ((?x607 (- ?x540 (* ?x806 36524))))
 (let ((?x598 (mod ?x607 1461)))
 (let ((?x1066 (div ?x598 365)))
 (let ((?x850 (ite (<= 4 ?x1066) 3 ?x1066)))
 (let ((?x755 (+ (+ (* (div ?x983 146097) 400) (* ?x806 100)) (* (div ?x607 1461) 4))))
 (let ((?x1036 (+ (+ ?x755 ?x850) 1)))
 (let (($x809 (or (and (= (mod ?x1036 4) 0) (and (distinct (mod ?x1036 100) 0) true)) (= (mod ?x1036 400) 0))))
 (let ((?x644 (- ?x598 (* ?x850 365))))
 (let ((?x941 (ite $x809 31 31)))
 (let (($x872 (>= ?x644 ?x941)))
 (let ((?x1769 (ite $x872 (+ (- ?x644 ?x941) 1) (+ (- ?x644 (ite $x809 0 0)) 1))))
 (let ((?x719 (ite $x809 60 59)))
 (let (($x3122 (>= ?x644 ?x719)))
 (let ((?x854 (ite $x809 91 90)))
 (let (($x3483 (>= ?x644 ?x854)))
 (let ((?x1763 (ite $x3483 (+ (- ?x644 ?x854) 1) (ite $x3122 (+ (- ?x644 ?x719) 1) ?x1769))))
 (let ((?x807 (ite $x809 121 120)))
 (let (($x929 (>= ?x644 ?x807)))
 (let ((?x843 (ite $x809 152 151)))
 (let (($x958 (>= ?x644 ?x843)))
 (let ((?x3439 (ite $x958 (+ (- ?x644 ?x843) 1) (ite $x929 (+ (- ?x644 ?x807) 1) ?x1763))))
 (let ((?x422 (ite $x809 182 181)))
 (let (($x3506 (>= ?x644 ?x422)))
 (let ((?x927 (ite $x809 213 212)))
 (let (($x756 (>= ?x644 ?x927)))
 (let ((?x3057 (ite $x756 (+ (- ?x644 ?x927) 1) (ite $x3506 (+ (- ?x644 ?x422) 1) ?x3439))))
 (let ((?x1079 (ite $x809 244 243)))
 (let (($x531 (>= ?x644 ?x1079)))
 (let ((?x673 (ite $x809 274 273)))
 (let (($x3210 (>= ?x644 ?x673)))
 (let ((?x3656 (ite $x3210 (+ (- ?x644 ?x673) 1) (ite $x531 (+ (- ?x644 ?x1079) 1) ?x3057))))
 (let ((?x901 (ite $x809 305 304)))
 (let (($x485 (>= ?x644 ?x901)))
 (let ((?x870 (ite $x809 335 334)))
 (let (($x864 (>= ?x644 ?x870)))
 (let ((?x623 (ite $x864 (+ (- ?x644 ?x870) 1) (ite $x485 (+ (- ?x644 ?x901) 1) ?x3656))))
 (let (($x833 (= 0 15)))
 (let ((?x1760 (ite $x929 5 (ite $x3483 4 (ite $x3122 3 (ite $x872 2 1))))))
 (let ((?x3151 (ite $x531 9 (ite $x756 8 (ite $x3506 7 (ite $x958 6 ?x1760))))))
 (let ((?x1119 (ite $x864 12 (ite $x485 11 (ite $x3210 10 ?x3151)))))
 (and (= (ite $x833 ?x474 ?x1036) y_year) (= (ite $x833 ?x876 ?x1119) y_month) (= (ite $x833 ?x849 ?x623) y_day)))))))))))))))))))))))))))))))))))))))))))))))))))))))))))))))))))))))))))))))))))))))))))))))))))))))))))))))))))))))))))))))
(assert
 (let (($x1089 (= y_year 2023)))
(let (($x535 (and $x1089 (or (> y_month 6) (and (= y_month 6) (>= y_day 1))))))
(or (> y_year 2023) $x535))))
(check-sat)
